 vasp.5.4.1 05Feb16 (build Jul 05 2020 17:13:04) complex

 executed on           IFC91_ompi date 2024.04.27  09:23:05

 INCAR:
 POTCAR:   PAW_PBE V 08Apr2002
 POTCAR:   PAW_PBE Mo 08Apr2002
 POTCAR:   PAW_PBE W 08Apr2002
 POTCAR:    PAW_PBE S 17Jan2003

 POTCAR:   PAW_PBE V 08Apr2002
   VRHFIN =V: p6 d4 s1

   TITEL  = PAW_PBE V 08Apr2002
   POMASS =   50.941; ZVAL   =    5.000    mass and valenz
   ENMAX  =  192.543; ENMIN  =  144.408 eV
   QCUT   =   -3.762; QGAM   =    7.524    optimization parameters

   Description
     l     E      TYP  RCUT    TYP  RCUT
     2   .000     23  2.700
     2   .000     23  2.700
     0   .000     23  2.700
     0  2.000     23  2.700
     1   .000     23  2.700
     1  2.000     23  2.700
     3   .000      7   .000

 POTCAR:   PAW_PBE Mo 08Apr2002
   VRHFIN =Mo: 4p5s4d

[...]

 POTCAR:   PAW_PBE W 08Apr2002
   VRHFIN =W : 6s5d

   TITEL  = PAW_PBE W 08Apr2002
   POMASS =  183.850; ZVAL   =    6.000    mass and valenz
   ENMAX  =  223.057; ENMIN  =  167.293 eV
   QCUT   =   -4.049; QGAM   =    8.098    optimization parameters

[...]

 POTCAR:    PAW_PBE S 17Jan2003
   VRHFIN =S : s2p4

   TITEL  = PAW_PBE S 17Jan2003
   POMASS =   32.066; ZVAL   =    6.000    mass and valenz
   ENMAX  =  280.000; ENMIN  =  194.016 eV
   QCUT   =   -4.360; QGAM   =    8.721    optimization parameters

   Description
     l     E      TYP  RCUT    TYP  RCUT
     0   .000     23  1.900
     0   .000     23  1.900
     1   .000     23  1.900
     1   .000     23  1.900
     2   .000     23  1.900

 PAW_PBE V 08Apr2002                    :
 PAW_PBE Mo 08Apr2002                   :
 PAW_PBE W 08Apr2002                    :
  PAW_PBE S 17Jan2003                   :

 POSCAR: crystal structure from VMoWS2 with Hexag
  positions in cartesian coordinates
 exchange correlation table for  LEXCH =        8
   RHO(1)=    0.500       N(1)  =     2000
   RHO(2)=  100.500       N(2)  =     4000

 ion  position               nearest neighbor table
   1  0.000  0.000  0.000-  23 2.34  14 2.34  11 2.36  10 2.36  27 2.36  26 2.36
   2  0.667  0.000  0.000-  17 2.34  26 2.34  23 2.36  22 2.36  21 2.36  20 2.36
   3  1.000  0.333  0.000-  25 2.34  10 2.34  13 2.36  12 2.36  22 2.36  23 2.36
   4  0.667  0.667  0.000-  21 2.34  24 2.34  27 2.36  26 2.36  19 2.36  18 2.36   6 3.34   9 3.34
                             5 3.34   8 3.36
   5  0.333  0.667  0.000-  15 2.34  18 2.34  20 2.36  21 2.36  13 2.36  12 2.36   7 3.34   8 3.34
                             6 3.34   4 3.34
   6  0.000  0.667  0.000-  27 2.34  12 2.34  14 2.36  15 2.36  24 2.36  25 2.36   4 3.34   5 3.34
                             7 3.36   9 3.36
   7  0.333  0.000  0.000-  11 2.34  20 2.34  17 2.36  16 2.36  15 2.36  14 2.36   5 3.34   8 3.34
                             6 3.36   9 3.36
   8  0.333  0.333  0.000-  13 2.34  16 2.34  19 2.36  18 2.36  11 2.36  10 2.36   5 3.34   7 3.34
                             9 3.34   4 3.36
   9  0.667  0.333  0.000-  19 2.34  22 2.34  25 2.36  24 2.36  17 2.36  16 2.36   4 3.34   8 3.34
                             6 3.36   7 3.36
  10  0.111  0.222  0.955-   3 2.34   1 2.36   8 2.36
  11  0.222  0.111  0.045-   7 2.34   1 2.36   8 2.36
  12  0.111  0.556  0.955-   6 2.34   3 2.36   5 2.36
  13  0.222  0.444  0.045-   8 2.34   3 2.36   5 2.36
  14  0.111  0.889  0.955-   1 2.34   6 2.36   7 2.36
  15  0.222  0.777  0.045-   5 2.34   6 2.36   7 2.36
  16  0.444  0.222  0.955-   8 2.34   7 2.36   9 2.36
  17  0.556  0.111  0.045-   2 2.34   7 2.36   9 2.36
  18  0.444  0.556  0.955-   5 2.34   8 2.36   4 2.36
  19  0.556  0.444  0.045-   9 2.34   8 2.36   4 2.36
  20  0.444  0.889  0.955-   7 2.34   5 2.36   2 2.36
  21  0.556  0.777  0.045-   4 2.34   5 2.36   2 2.36
  22  0.777  0.222  0.955-   9 2.34   2 2.36   3 2.36
  23  0.889  0.111  0.045-   1 2.34   2 2.36   3 2.36
  24  0.777  0.556  0.955-   4 2.34   9 2.36   6 2.36
  25  0.889  0.444  0.045-   3 2.34   9 2.36   6 2.36
  26  0.777  0.889  0.955-   2 2.34   4 2.36   1 2.36
  27  0.889  0.777  0.045-   6 2.34   4 2.36   1 2.36

IMPORTANT INFORMATION: All symmetrisations will be switched off!
NOSYMM: (Re-)initialisation of all symmetry stuff for point group C_1.

 KPOINTS: K-POINTS 	#supercell of CrS2 in hexagona

Automatic generation of k-mesh.
Space group operators:
 irot       det(A)        alpha          n_x          n_y          n_z        tau_x        tau_y        tau_z
    1     1.000000     0.000000     1.000000     0.000000     0.000000     0.000000     0.000000     0.000000

 Subroutine IBZKPT returns following result:

 Found     34 irreducible k-points:

 Following reciprocal coordinates:
            Coordinates               Weight
  0.000000  0.000000  0.000000      1.000000
  0.125000  0.000000  0.000000      2.000000
  0.250000  0.000000  0.000000      2.000000
  0.375000  0.000000  0.000000      2.000000
  0.500000  0.000000  0.000000      1.000000
  0.000000  0.125000  0.000000      2.000000
  0.125000  0.125000  0.000000      2.000000
  0.250000  0.125000  0.000000      2.000000
  0.375000  0.125000  0.000000      2.000000
  0.500000  0.125000  0.000000      2.000000
 -0.375000  0.125000  0.000000      2.000000
 -0.250000  0.125000  0.000000      2.000000
 -0.125000  0.125000  0.000000      2.000000
  0.000000  0.250000  0.000000      2.000000
  0.125000  0.250000  0.000000      2.000000
  0.250000  0.250000  0.000000      2.000000
  0.375000  0.250000  0.000000      2.000000
  0.500000  0.250000  0.000000      2.000000
 -0.375000  0.250000  0.000000      2.000000
 -0.250000  0.250000  0.000000      2.000000
 -0.125000  0.250000  0.000000      2.000000
 -0.000000  0.375000  0.000000      2.000000
  0.125000  0.375000  0.000000      2.000000
  0.250000  0.375000  0.000000      2.000000
  0.375000  0.375000  0.000000      2.000000
  0.500000  0.375000  0.000000      2.000000
 -0.375000  0.375000  0.000000      2.000000
 -0.250000  0.375000  0.000000      2.000000
 -0.125000  0.375000  0.000000      2.000000
  0.000000  0.500000  0.000000      1.000000
  0.125000  0.500000  0.000000      2.000000
  0.250000  0.500000  0.000000      2.000000
  0.375000  0.500000  0.000000      2.000000
  0.500000  0.500000  0.000000      1.000000

 Following cartesian coordinates:
            Coordinates               Weight
  0.000000  0.000000  0.000000      1.000000
  0.007209  0.012401  0.000000      2.000000
  0.014418  0.024802  0.000000      2.000000
  0.021626  0.037202  0.000000      2.000000
  0.028835  0.049603  0.000000      1.000000
 -0.007209  0.012401  0.000000      2.000000
  0.000000  0.024802  0.000000      2.000000
  0.007209  0.037202  0.000000      2.000000
  0.014418  0.049603  0.000000      2.000000
  0.021626  0.062004  0.000000      2.000000
 -0.028835 -0.024802  0.000000      2.000000
 -0.021626 -0.012401  0.000000      2.000000
 -0.014418  0.000000  0.000000      2.000000
 -0.014418  0.024802  0.000000      2.000000
 -0.007209  0.037202  0.000000      2.000000
  0.000000  0.049603  0.000000      2.000000
  0.007209  0.062004  0.000000      2.000000
  0.014418  0.074405  0.000000      2.000000
 -0.036044 -0.012401  0.000000      2.000000
 -0.028835  0.000000  0.000000      2.000000
 -0.021626  0.012401  0.000000      2.000000
 -0.021626  0.037202  0.000000      2.000000
 -0.014418  0.049603  0.000000      2.000000
 -0.007209  0.062004  0.000000      2.000000
  0.000000  0.074405  0.000000      2.000000
  0.007209  0.086806  0.000000      2.000000
 -0.043253  0.000000  0.000000      2.000000
 -0.036044  0.012401  0.000000      2.000000
 -0.028835  0.024802  0.000000      2.000000
 -0.028835  0.049603  0.000000      1.000000
 -0.021626  0.062004  0.000000      2.000000
 -0.014418  0.074405  0.000000      2.000000
 -0.007209  0.086806  0.000000      2.000000
  0.000000  0.099206  0.000000      1.000000

 I would recommend the setting:
   dimension x,y,z NGX =    41 NGY =   41 NGZ =  123
 SYSTEM =  unknown system
 POSCAR =  crystal structure from VMoWS2 with Hexag

 Startparameter for this run:
   NWRITE =      2    write-flag & timer
   PREC   = normal    normal or accurate (medium, high low for compatibility)
   ISTART =      0    job   : 0-new  1-cont  2-samecut
   ICHARG =      2    charge: 1-file 2-atom 10-const
   ISPIN  =      1    spin polarized calculation?
   LNONCOLLINEAR =      F non collinear calculations
   LSORBIT =      F    spin-orbit coupling
   INIWAV =      1    electr: 0-lowe 1-rand  2-diag
   LASPH  =      F    aspherical Exc in radial PAW
   METAGGA=      F    non-selfconsistent MetaGGA calc.

 Electronic Relaxation 1
   ENCUT  =  280.0 eV  20.58 Ry    4.54 a.u.  13.68 13.68 40.93*2*pi/ulx,y,z
   ENINI  =  280.0     initial cutoff
   ENAUG  =  373.4 eV  augmentation charge cutoff
   NELM   =     60;   NELMIN=  2; NELMDL= -5     # of ELM steps
   EDIFF  = 0.1E-03   stopping-criterion for ELM
   LREAL  =      F    real-space projection
   NLSPLINE    = F    spline interpolate recip. space projectors
   LCOMPAT=      F    compatible to vasp.4.4
   GGA_COMPAT  = T    GGA compatible to vasp.4.4-vasp.4.6
   LMAXPAW     = -100 max onsite density
   LMAXMIX     =    2 max onsite mixed and CHGCAR
   VOSKOWN=      0    Vosko Wilk Nusair interpolation
   ROPT   =    0.00000   0.00000   0.00000   0.00000
 Ionic relaxation
   EDIFFG = 0.1E-02   stopping-criterion for IOM
   NSW    =    100    number of steps for IOM
   NBLOCK =      1;   KBLOCK =    100    inner block; outer block
   IBRION =      1    ionic relax: 0-MD 1-quasi-New 2-CG
   NFREE  =      0    steps in history (QN), initial steepest desc. (CG)
   ISIF   =      3    stress and relaxation
   IWAVPR =     11    prediction:  0-non 1-charg 2-wave 3-comb
   ISYM   =      0    0-nonsym 1-usesym 2-fastsym
   LCORR  =      T    Harris-Foulkes like correction to forces

   POTIM  = 0.5000    time-step for ionic-motion
   TEIN   =    0.0    initial temperature
   TEBEG  =    0.0;   TEEND  =   0.0 temperature during run
   SMASS  =  -3.00    Nose mass-parameter (am)
   estimated Nose-frequenzy (Omega)   =  0.10E-29 period in steps =****** mass=  -0.230E-26a.u.
   SCALEE = 1.0000    scale energy and forces
   NPACO  =    256;   APACO  = 16.0  distance and # of slots for P.C.
   PSTRESS=    0.0 pullay stress

  Mass of Ions in am
   POMASS =  50.94 95.94183.85 32.07
  Ionic Valenz
   ZVAL   =   5.00  6.00  6.00  6.00
  Atomic Wigner-Seitz radii
  virtual crystal weights
   VCA    =   1.00  1.00  1.00  1.00
   NELECT =     159.0000    total number of electrons
   NUPDOWN=      -1.0000    fix difference up-down

 DOS related values:
   EMIN   =  10.00;   EMAX   =-10.00  energy-range for DOS
   EFERMI =   0.00
   ISMEAR =     0;   SIGMA  =   0.20  broadening in eV -4-tet -1-fermi 0-gaus

 Electronic relaxation 2 (details)
   IALGO  =     38    algorithm
   LDIAG  =      T    sub-space diagonalisation (order eigenvalues)
   LSUBROT=      F    optimize rotation matrix (better conditioning)
   TURBO    =      0    0=normal 1=particle mesh
   IRESTART =      0    0=no restart 2=restart with 2 vectors
   NREBOOT  =      0    no. of reboots
   NMIN     =      0    reboot dimension
   EREF     =   0.00    reference energy to select bands
[...]
     -6.74900      5.03900     28.66200        -0.646472      0.156424     -2.144303
     -4.81100      5.03900      1.33800        -0.203984      0.144130      2.889584
      1.92100      3.35900     28.66200         0.156882     -0.034447     -2.863070
      3.85900      3.35900      1.33800         0.581853      0.018462      2.084673
     -0.96900      5.03900     28.66200         0.175283     -0.145369     -2.897582
      0.96900      5.03900      1.33800        -0.044880     -0.141164      2.978530
     -3.85900      6.71900     28.66200         0.349203      0.684541     -2.191717
     -1.92100      6.71900      1.33800        -0.499181      0.700726      2.140444
      4.81100      5.03900     28.66200         0.747290     -0.005190     -1.444071
      6.74900      5.03900      1.33800        -0.059437     -0.012563      0.764378
      1.92100      6.71900     28.66200         0.220888     -0.119524     -2.892313
      3.85900      6.71900      1.33800         0.662020     -0.174346      2.120251
     -0.96900      8.39900     28.66200        -0.330342      0.677787     -1.429289
      0.96900      8.39900      1.33800        -0.541371      0.677616      2.136623
    total drift:                                0.000065      0.000042     -0.000014

  FREE ENERGIE OF THE ION-ELECTRON SYSTEM (eV)
  free  energy   TOTEN  =      -186.82628315 eV

  energy  without entropy=     -186.48513950  energy(sigma->0) =     -186.65571133

 Quasi-Newton relaxation of ions (Broydens 2nd method)
  g(Force)  = 0.474E+01   g(Stress)= 0.349E+00

 Reset! Starting new Quasi-Newton update for ions

[...]

 d Force = 0.2405209E+01[ 0.673E-01, 0.474E+01]  d Energy = 0.1829307E+01 0.576E+00
 d Force = 0.9608812E+03[ 0.943E+03, 0.979E+03]  d Ewald  = 0.2511229E+04-0.155E+04

[...]

 retain information from N=  1 steps
 eigenvalues of (default step * inverse Hessian matrix)
  average eigenvalue of G=   0.2410
 eigenvalue spectrum of G is  0.2410

[...]

 d Force = 0.3689944E-01[ 0.364E-01, 0.374E-01]  d Energy = 0.1094888E+01-0.106E+01
 d Force =-0.3277449E+01[-0.335E+01,-0.320E+01]  d Ewald  =-0.1923135E+04 0.192E+04

[...]

 d Force = 0.4987624E+00[ 0.448E+00, 0.550E+00]  d Energy = 0.1025087E+01-0.526E+00
 d Force = 0.4115257E+03[ 0.421E+03, 0.402E+03]  d Ewald  =-0.1538251E+04 0.195E+04

[...]

 d Force = 0.1474170E+00[ 0.126E+00, 0.169E+00]  d Energy = 0.1532781E+00-0.586E-02
 d Force =-0.1046042E+02[-0.100E+02,-0.109E+02]  d Ewald  = 0.1572774E+03-0.168E+03

[...]

 d Force = 0.8890615E-02[ 0.838E-02, 0.940E-02]  d Energy = 0.8980299E-02-0.897E-04
 d Force = 0.2147972E+01[ 0.216E+01, 0.214E+01]  d Ewald  = 0.4528492E+02-0.431E+02

[...]

 d Force = 0.2958250E-01[ 0.210E-01, 0.382E-01]  d Energy = 0.3036350E-01-0.781E-03
 d Force = 0.4858495E+00[ 0.987E+00,-0.155E-01]  d Ewald  =-0.2568713E+02 0.262E+02

[...]

 d Force = 0.4821721E-02[ 0.392E-02, 0.573E-02]  d Energy = 0.4217636E-02 0.604E-03
 d Force = 0.2378112E+01[ 0.246E+01, 0.230E+01]  d Ewald  =-0.1203435E+01 0.358E+01

[...]

 d Force = 0.1415295E-02[ 0.119E-02, 0.164E-02]  d Energy = 0.1031015E-02 0.384E-03
 d Force =-0.4662769E+01[-0.466E+01,-0.467E+01]  d Ewald  = 0.2359473E+02-0.283E+02

[...]

 FEWALD executed in parallel

[...]

 eigenvalue-minimisations  : 11880
 total energy-change (2. order) :-0.5301915E-03  (-0.3473285E-03)
 number of electron     158.9999780 magnetization
 augmentation part       -4.2024155 magnetization

[...]

 Broyden mixing:
  rms(total) = 0.54373E-02    rms(broyden)= 0.54317E-02
  rms(prec ) = 0.58736E-02
  weight for this iteration     100.00

 eigenvalues of (default mixing * dielectric matrix)
  average eigenvalue GAMMA=   0.5250
  0.8574  0.1926

[...]

----------------------------------------- Iteration   22(   4)  ---------------------------------------

 eigenvalue-minimisations  :  6000
 total energy-change (2. order) : 0.1568017E-04  (-0.6178651E-05)
 number of electron     158.9999780 magnetization
 augmentation part       -4.2261405 magnetization

 Free energy of the ion-electron system (eV)
  alpha Z        PSCENC =        89.47760174
  Ewald energy   TEWEN  =     44377.50528276
  -Hartree energ DENC   =    -50385.20102291
  -exchange      EXHF   =         0.00000000
  -V(xc)+E(xc)   XCENC  =      -233.54256483
  PAW double counting   =      4098.20762184    -3514.25053656
  entropy T*S    EENTRO =        -0.13293921
  eigenvalues    EBANDS =     -1385.84414046
  atomic energy  EATOM  =      6761.44252427
  Solvation  Ediel_sol  =         0.00000000
  free energy    TOTEN  =      -192.33817335 eV

  energy without entropy =     -192.20523413  energy(sigma->0) =     -192.27170374

 average (electrostatic) potential at core
  the test charge radii are     1.2064  1.2296  1.1823  0.9698
  (the norm of the test charge is              1.0000)
       1 -49.7944       2 -49.7761       3 -49.6952       4 -47.1537       5 -47.0556
       6 -47.0702       7 -49.6188       8 -49.5920       9 -49.6045      10 -94.5596
      11 -94.6827      12 -94.9940      13 -95.1058      14 -95.1208      15 -95.2921
      16 -94.8467      17 -94.6797      18 -95.2442      19 -95.2264      20 -95.1236
      21 -95.0130      22 -94.5650      23 -94.4858      24 -95.2372      25 -95.1048
      26 -94.9561      27 -94.9982

 E-fermi :  -3.2481     XC(G=0):  -2.5617     alpha+bet : -2.3665

[...]

 k-point    34 :       0.5000    0.5000    0.0000
  band No.  band energies     occupation
      1     -17.5053      2.00000
      2     -17.3492      2.00000
      3     -16.7442      2.00000
      4     -16.7168      2.00000
      5     -16.5815      2.00000
      6     -16.5540      2.00000
      7     -16.2775      2.00000
      8     -16.1979      2.00000
      9     -16.1194      2.00000
     10     -16.0821      2.00000
     11     -15.8785      2.00000
     12     -15.8365      2.00000
     13     -15.7709      2.00000
     14     -15.6973      2.00000
     15     -15.6411      2.00000
     16     -15.4311      2.00000
     17     -15.3391      2.00000
     18     -15.2103      2.00000
     19      -9.8138      2.00000
     20      -9.3526      2.00000
     21      -9.3033      2.00000
     22      -9.0064      2.00000
     23      -8.9386      2.00000
     24      -8.8308      2.00000
     25      -8.6806      2.00000
     26      -8.6631      2.00000
     27      -8.4391      2.00000
     28      -8.2916      2.00000
     29      -8.2272      2.00000
     30      -8.1316      2.00000
     31      -8.0825      2.00000
     32      -8.0106      2.00000
     33      -7.9208      2.00000
     34      -7.8465      2.00000
     35      -7.7482      2.00000
     36      -7.6823      2.00000
     37      -7.6432      2.00000
     38      -7.6001      2.00000
     39      -7.4692      2.00000
     40      -7.3377      2.00000
     41      -7.0909      2.00000
     42      -7.0748      2.00000
     43      -7.0000      2.00000
     44      -6.8545      2.00000
     45      -6.8234      2.00000
     46      -6.7145      2.00000
     47      -6.6529      2.00000
     48      -6.5902      2.00000
     49      -6.5234      2.00000
     50      -6.4618      2.00000
     51      -6.4131      2.00000
     52      -6.3456      2.00000
     53      -6.2711      2.00000
     54      -6.1833      2.00000
     55      -6.1105      2.00000
     56      -6.0949      2.00000
     57      -6.0104      2.00000
     58      -5.8476      2.00000
     59      -5.8181      2.00000
     60      -5.7927      2.00000
[...]
    106      -0.4072      0.00000
    107      -0.2949      0.00000
    108      -0.1237      0.00000
    109       0.0213      0.00000
    110       0.1956      0.00000
    111       0.2739      0.00000
    112       0.5856      0.00000
    113       0.7706      0.00000
    114       1.0417      0.00000
    115       1.1396      0.00000
    116       1.3264      0.00000
    117       1.5674      0.00000
    118       2.2519      0.00000
    119       2.2661      0.00000
    120       2.4056      0.00000

 soft charge-density along one line, spin component           1
         0         1         2         3         4         5         6         7         8         9
 total charge-density along one line

------------------------ aborting loop because EDIFF is reached ----------------------------------------

  FORCE on cell =-STRESS in cart. coord.  units (eV):
  Direction    XX          YY          ZZ          XY          YZ          ZX
  Alpha Z    89.47760    89.47760    89.47760
  Ewald   49339.92972 49293.32012-54255.76157    39.46646   -21.72493    12.14295
  Hartree 50045.52672 50015.88450-49676.50311    25.27301   -12.14388     6.93283
  E(xc)    -609.57246  -610.63469  -617.85694     0.92245     0.95714    -0.54129
  Local  ************************101369.74588   -57.87494    42.03261   -23.73454
  n-local  1213.53037  1215.42852  1248.73829    -1.65214     2.30445    -1.42834
  augment  -213.33821  -212.84599  -214.64975    -0.46816    -1.00138     0.57169
  Kinetic  2008.23296  2014.84810  2054.79839    -5.65792   -10.23491     5.94701
  Fock        0.00000     0.00000     0.00000     0.00000     0.00000     0.00000
  Total      -0.21414    -0.19668    -2.01121     0.00877     0.18909    -0.10969
  in kB      -0.14340    -0.13171    -1.34678     0.00587     0.12662    -0.07345

 VOLUME and BASIS-vectors are now :
  energy-cutoff  :      280.00
  volume of cell :     2392.62
      direct lattice vectors                 reciprocal lattice vectors
     8.288768801  4.787777892  0.000000000     0.060467828  0.104181139  0.000000000
    -8.308847189  4.822542208  0.000000000    -0.060031933  0.103929385  0.000000000
     0.000000000  0.000000000 30.000000000     0.000000000  0.000000000  0.033333333

  length of vectors
     9.572173493  9.606969083 30.000000000     0.120457744  0.120021456  0.033333333

 FORCES acting on ions
    electron-ion (+dipol)            ewald-force                    non-local-force                 convergence-correction
   0.128E+02 -.204E+02 0.161E+02   -.139E+02 0.216E+02 -.159E+02   0.104E+01 -.118E+01 -.232E+00   -.326E-01 -.113E-02 -.266E-01
   0.113E+02 -.220E+02 0.164E+02   -.118E+02 0.234E+02 -.161E+02   0.498E+00 -.147E+01 -.222E+00   -.851E-02 0.267E-01 -.291E-01
   -.131E+02 0.230E+02 -.141E+02   0.139E+02 -.243E+02 0.138E+02   -.759E+00 0.133E+01 0.273E+00   -.131E-02 -.244E-01 0.274E-01
   0.498E+01 -.122E+02 0.327E+01   -.489E+01 0.120E+02 -.325E+01   -.101E+00 0.179E+00 -.133E-01   -.237E-01 0.850E-02 -.512E-02
   -.554E+01 -.233E+01 0.198E+01   0.533E+01 0.224E+01 -.200E+01   0.245E+00 0.934E-01 0.257E-01   0.140E-02 0.994E-02 -.488E-04
   0.636E+01 0.449E+01 0.212E+01   -.616E+01 -.431E+01 -.214E+01   -.215E+00 -.156E+00 0.293E-01   0.237E-01 -.178E-01 0.464E-02
   0.175E+02 -.298E+02 0.197E+02   -.179E+02 0.305E+02 -.196E+02   0.384E+00 -.657E+00 -.167E+00   0.174E-01 0.282E-01 -.779E-02
   -.145E+02 0.300E+02 -.236E+02   0.149E+02 -.309E+02 0.234E+02   -.317E+00 0.835E+00 0.213E+00   -.928E-02 -.222E-01 0.620E-02
   -.185E+02 0.268E+02 -.240E+02   0.190E+02 -.275E+02 0.238E+02   -.591E+00 0.715E+00 0.225E+00   0.427E-01 -.474E-02 0.995E-02
   -.570E+01 0.130E+02 0.488E+03   0.550E+01 -.133E+02 -.493E+03   0.241E+00 0.256E+00 0.487E+01   -.497E-01 -.130E-01 0.909E-02
   0.750E+01 -.555E+01 -.496E+03   -.737E+01 0.493E+01 0.501E+03   -.123E+00 0.597E+00 -.505E+01   -.228E-02 0.105E-01 0.154E-01
   -.855E+01 0.151E+02 0.606E+03   0.919E+01 -.163E+02 -.609E+03   -.658E+00 0.124E+01 0.318E+01   0.192E-01 -.469E-01 0.372E-02
   -.106E+02 0.216E+02 -.606E+03   0.109E+02 -.224E+02 0.610E+03   -.278E+00 0.823E+00 -.366E+01   -.275E-01 -.613E-01 -.195E-01
   0.176E+02 -.178E+02 0.610E+03   -.180E+02 0.185E+02 -.614E+03   0.493E+00 -.656E+00 0.366E+01   -.283E-02 0.137E-01 -.890E-02
   0.758E+01 -.128E+02 -.620E+03   -.830E+01 0.139E+02 0.624E+03   0.715E+00 -.113E+01 -.347E+01   0.172E-02 0.174E-02 0.177E-01
   -.639E+01 0.107E+02 0.505E+03   0.619E+01 -.104E+02 -.510E+03   0.186E+00 -.297E+00 0.524E+01   0.231E-01 -.368E-02 -.110E-01
   0.151E+01 -.963E+01 -.496E+03   -.107E+01 0.921E+01 0.501E+03   -.469E+00 0.398E+00 -.505E+01   0.374E-01 0.131E-01 -.218E-01
   -.313E+01 0.988E+01 0.614E+03   0.405E+01 -.109E+02 -.617E+03   -.916E+00 0.101E+01 0.349E+01   -.461E-02 0.156E-01 -.219E-01
   -.113E+02 0.185E+02 -.633E+03   0.115E+02 -.189E+02 0.637E+03   -.206E+00 0.356E+00 -.404E+01   0.149E-01 0.252E-02 0.641E-02
   0.736E+01 -.239E+02 0.611E+03   -.769E+01 0.247E+02 -.614E+03   0.322E+00 -.766E+00 0.364E+01   0.145E-01 0.517E-01 0.286E-01
   0.542E+01 -.152E+02 -.591E+03   -.622E+01 0.169E+02 0.594E+03   0.823E+00 -.168E+01 -.310E+01   -.195E-01 0.405E-01 -.220E-01
   -.803E+01 0.110E+02 0.487E+03   0.835E+01 -.109E+02 -.492E+03   -.355E+00 -.941E-01 0.486E+01   0.400E-01 -.594E-02 0.379E-01
   0.367E+01 -.656E+01 -.479E+03   -.349E+01 0.633E+01 0.484E+03   -.112E+00 0.214E+00 -.457E+01   -.584E-01 0.107E-01 -.309E-01
   -.673E+01 0.678E+01 0.611E+03   0.721E+01 -.810E+01 -.614E+03   -.491E+00 0.132E+01 0.350E+01   0.676E-02 -.541E-02 -.175E-01
   -.128E+02 0.201E+02 -.606E+03   0.133E+02 -.207E+02 0.610E+03   -.570E+00 0.640E+00 -.367E+01   0.586E-01 -.203E-01 -.325E-01
   0.111E+02 -.206E+02 0.587E+03   -.116E+02 0.216E+02 -.590E+03   0.591E+00 -.101E+01 0.323E+01   -.579E-01 0.708E-02 0.305E-01
   0.981E+01 -.114E+02 -.588E+03   -.109E+02 0.131E+02 0.591E+03   0.104E+01 -.163E+01 -.309E+01   -.320E-02 -.102E-01 0.243E-01
   -.410E+00 0.728E+00 -.732E-01   -.426E-13 0.338E-13 0.000E+00   0.413E+00 -.736E+00 0.109E+00   0.486E-04 0.342E-02 -.325E-01

 POSITION                                       TOTAL-FORCE (eV/Angst)
      0.14964     -0.24848     -0.05785        -0.003060     -0.001669     -0.029058
      5.66337      2.93661     -0.05951        -0.001080      0.017151     -0.027244
      5.38449      6.62906      0.05367        -0.000396      0.006885      0.027459
      0.01121      6.33457     -0.00962        -0.027436     -0.035660      0.002329
     -2.81880      4.78851     -0.00598         0.033435      0.011378      0.007233
     -5.48590      3.24701     -0.00626         0.003773      0.007011      0.006504
      2.93070      1.30771     -0.06341        -0.003283      0.001657     -0.016119
     -0.15315      3.49396      0.07237         0.000438     -0.006278      0.013977
      2.57559      5.07289      0.07330        -0.002602     -0.000520      0.017987
     -0.93498      1.59857     28.71914        -0.009251     -0.000896      0.007909
      0.91162      1.58753      1.30748         0.000589     -0.014173     -0.009865
     -3.67440      3.17750     28.37642         0.009118     -0.007680      0.027585
     -1.88882      3.19420      1.65807        -0.006246      0.017797      0.015715
     -6.47632      4.78192     28.33131         0.006838     -0.004645     -0.018342
     -4.59845      4.77864      1.66465        -0.001083      0.012219     -0.003433
      1.84140      3.19344     28.67134         0.002160      0.000402      0.007241
      3.69576      3.19641      1.30855         0.007778     -0.004641     -0.005482
     -0.96214      4.83648     28.35004         0.007613     -0.021427     -0.006949
      0.87725      4.86006      1.74397        -0.006296     -0.000701      0.013248
     -3.66353      6.40743     28.32954         0.001233     -0.005940     -0.020701
     -1.87076      6.42622      1.57783        -0.001130      0.021557      0.006885
      4.60860      4.80103     28.72115        -0.002191      0.014910      0.009984
      6.45057      4.77922      1.25506         0.006880     -0.003276     -0.011658
      1.81607      6.44661     28.35800         0.001904     -0.008942      0.016766
      3.70457      6.42685      1.65793        -0.013572      0.017676      0.013430
     -0.94495      8.01780     28.40209         0.013267     -0.019150     -0.027255
      0.89922      8.02273      1.57070        -0.017401      0.006955     -0.018146
    total drift:                                0.003063     -0.004264      0.003172

  FREE ENERGIE OF THE ION-ELECTRON SYSTEM (eV)
  free  energy   TOTEN  =      -192.33817335 eV

  energy  without entropy=     -192.20523413  energy(sigma->0) =     -192.27170374

 d Force = 0.8933298E-03[ 0.817E-03, 0.970E-03]  d Energy = 0.8259957E-03 0.673E-04
 d Force =-0.2786585E+01[-0.278E+01,-0.279E+01]  d Ewald  =-0.5768319E+01 0.298E+01

 Quasi-Newton relaxation of ions (Broydens 2nd method)
  g(Force)  = 0.721E-03   g(Stress)= 0.151E-03

 retain information from N=  1 steps
 eigenvalues of (default step * inverse Hessian matrix)
  average eigenvalue of G=   0.1160
 eigenvalue spectrum of G is  0.1160

 reached required accuracy - stopping structural energy minimisation