 vasp.5.4.1 05Feb16 (build Jul 05 2020 17:13:04) complex

 executed on           IFC91_ompi date 2024.04.29  18:00:53

 INCAR:
 POTCAR:   PAW_PBE V 08Apr2002
 POTCAR:   PAW_PBE Mo 08Apr2002
 POTCAR:   PAW_PBE W 08Apr2002
 POTCAR:    PAW_PBE S 17Jan2003

 POTCAR:   PAW_PBE V 08Apr2002
   VRHFIN =V: p6 d4 s1

   TITEL  = PAW_PBE V 08Apr2002
   POMASS =   50.941; ZVAL   =    5.000    mass and valenz
   ENMAX  =  192.543; ENMIN  =  144.408 eV
   QCUT   =   -3.762; QGAM   =    7.524    optimization parameters

   Description
     l     E      TYP  RCUT    TYP  RCUT
     2   .000     23  2.700
     2   .000     23  2.700
     0   .000     23  2.700
     0  2.000     23  2.700
     1   .000     23  2.700
     1  2.000     23  2.700
     3   .000      7   .000

 POTCAR:   PAW_PBE Mo 08Apr2002
   VRHFIN =Mo: 4p5s4d

[...]

 POTCAR:   PAW_PBE W 08Apr2002
   VRHFIN =W : 6s5d

   TITEL  = PAW_PBE W 08Apr2002
   POMASS =  183.850; ZVAL   =    6.000    mass and valenz
   ENMAX  =  223.057; ENMIN  =  167.293 eV
   QCUT   =   -4.049; QGAM   =    8.098    optimization parameters

[...]

 POTCAR:    PAW_PBE S 17Jan2003
   VRHFIN =S : s2p4

   TITEL  = PAW_PBE S 17Jan2003
   POMASS =   32.066; ZVAL   =    6.000    mass and valenz
   ENMAX  =  280.000; ENMIN  =  194.016 eV
   QCUT   =   -4.360; QGAM   =    8.721    optimization parameters

   Description
     l     E      TYP  RCUT    TYP  RCUT
     0   .000     23  1.900
     0   .000     23  1.900
     1   .000     23  1.900
     1   .000     23  1.900
     2   .000     23  1.900

 PAW_PBE V 08Apr2002                    :
 PAW_PBE Mo 08Apr2002                   :
 PAW_PBE W 08Apr2002                    :
  PAW_PBE S 17Jan2003                   :

 POSCAR: crystal structure from VMoWS2 with Hexag
  positions in cartesian coordinates
 exchange correlation table for  LEXCH =        8
   RHO(1)=    0.500       N(1)  =     2000
   RHO(2)=  100.500       N(2)  =     4000

 ion  position               nearest neighbor table
   1  0.667  0.000  0.000-  17 2.34  26 2.34  23 2.36  22 2.36  21 2.36  20 2.36
   2  0.667  0.333  0.000-  19 2.34  22 2.34  25 2.36  24 2.36  17 2.36  16 2.36
   3  0.333  0.000  0.000-  11 2.34  20 2.34  17 2.36  16 2.36  15 2.36  14 2.36
   4  1.000  0.333  0.000-  25 2.34  10 2.34  13 2.36  12 2.36  22 2.36  23 2.36   6 3.34   5 3.34
                             7 3.34   8 3.36
   5  0.000  0.000  0.000-  23 2.34  14 2.34  11 2.36  10 2.36  27 2.36  26 2.36   6 3.34   4 3.34
                             9 3.36   7 3.36
   6  0.000  0.667  0.000-  27 2.34  12 2.34  14 2.36  15 2.36  24 2.36  25 2.36   9 3.34   5 3.34
                             4 3.34   8 3.34
   7  0.333  0.333  0.000-  13 2.34  16 2.34  19 2.36  18 2.36  11 2.36  10 2.36   8 3.34   4 3.34
                             5 3.36   9 3.36
   8  0.333  0.667  0.000-  15 2.34  18 2.34  20 2.36  21 2.36  13 2.36  12 2.36   7 3.34   6 3.34
                             9 3.34   4 3.36
   9  0.667  0.667  0.000-  21 2.34  24 2.34  27 2.36  26 2.36  19 2.36  18 2.36   6 3.34   8 3.34
                             5 3.36   7 3.36
  10  0.111  0.222  0.955-   4 2.34   5 2.36   7 2.36
  11  0.222  0.111  0.045-   3 2.34   5 2.36   7 2.36
  12  0.111  0.556  0.955-   6 2.34   4 2.36   8 2.36
  13  0.222  0.444  0.045-   7 2.34   4 2.36   8 2.36
  14  0.111  0.889  0.955-   5 2.34   6 2.36   3 2.36
  15  0.222  0.777  0.045-   8 2.34   6 2.36   3 2.36
  16  0.444  0.222  0.955-   7 2.34   3 2.36   2 2.36
  17  0.556  0.111  0.045-   1 2.34   3 2.36   2 2.36
  18  0.444  0.556  0.955-   8 2.34   7 2.36   9 2.36
  19  0.556  0.444  0.045-   2 2.34   7 2.36   9 2.36
  20  0.444  0.889  0.955-   3 2.34   8 2.36   1 2.36
  21  0.556  0.777  0.045-   9 2.34   8 2.36   1 2.36
  22  0.777  0.222  0.955-   2 2.34   1 2.36   4 2.36
  23  0.889  0.111  0.045-   5 2.34   1 2.36   4 2.36
  24  0.777  0.556  0.955-   9 2.34   2 2.36   6 2.36
  25  0.889  0.444  0.045-   4 2.34   2 2.36   6 2.36
  26  0.777  0.889  0.955-   1 2.34   9 2.36   5 2.36
  27  0.889  0.777  0.045-   6 2.34   9 2.36   5 2.36

IMPORTANT INFORMATION: All symmetrisations will be switched off!
NOSYMM: (Re-)initialisation of all symmetry stuff for point group C_1.

 KPOINTS: K-POINTS 	#supercell of CrS2 in hexagona

Automatic generation of k-mesh.
Space group operators:
 irot       det(A)        alpha          n_x          n_y          n_z        tau_x        tau_y        tau_z
    1     1.000000     0.000000     1.000000     0.000000     0.000000     0.000000     0.000000     0.000000

 Subroutine IBZKPT returns following result:

 Found     34 irreducible k-points:

 Following reciprocal coordinates:
            Coordinates               Weight
  0.000000  0.000000  0.000000      1.000000
  0.125000  0.000000  0.000000      2.000000
  0.250000  0.000000  0.000000      2.000000
  0.375000  0.000000  0.000000      2.000000
  0.500000  0.000000  0.000000      1.000000
  0.000000  0.125000  0.000000      2.000000
  0.125000  0.125000  0.000000      2.000000
  0.250000  0.125000  0.000000      2.000000
  0.375000  0.125000  0.000000      2.000000
  0.500000  0.125000  0.000000      2.000000
 -0.375000  0.125000  0.000000      2.000000
 -0.250000  0.125000  0.000000      2.000000
 -0.125000  0.125000  0.000000      2.000000
  0.000000  0.250000  0.000000      2.000000
  0.125000  0.250000  0.000000      2.000000
  0.250000  0.250000  0.000000      2.000000
  0.375000  0.250000  0.000000      2.000000
  0.500000  0.250000  0.000000      2.000000
 -0.375000  0.250000  0.000000      2.000000
 -0.250000  0.250000  0.000000      2.000000
 -0.125000  0.250000  0.000000      2.000000
 -0.000000  0.375000  0.000000      2.000000
  0.125000  0.375000  0.000000      2.000000
  0.250000  0.375000  0.000000      2.000000
  0.375000  0.375000  0.000000      2.000000
  0.500000  0.375000  0.000000      2.000000
 -0.375000  0.375000  0.000000      2.000000
 -0.250000  0.375000  0.000000      2.000000
 -0.125000  0.375000  0.000000      2.000000
  0.000000  0.500000  0.000000      1.000000
  0.125000  0.500000  0.000000      2.000000
  0.250000  0.500000  0.000000      2.000000
  0.375000  0.500000  0.000000      2.000000
  0.500000  0.500000  0.000000      1.000000

 Following cartesian coordinates:
            Coordinates               Weight
  0.000000  0.000000  0.000000      1.000000
  0.007209  0.012401  0.000000      2.000000
  0.014418  0.024802  0.000000      2.000000
  0.021626  0.037202  0.000000      2.000000
  0.028835  0.049603  0.000000      1.000000
 -0.007209  0.012401  0.000000      2.000000
  0.000000  0.024802  0.000000      2.000000
  0.007209  0.037202  0.000000      2.000000
  0.014418  0.049603  0.000000      2.000000
  0.021626  0.062004  0.000000      2.000000
 -0.028835 -0.024802  0.000000      2.000000
 -0.021626 -0.012401  0.000000      2.000000
 -0.014418  0.000000  0.000000      2.000000
 -0.014418  0.024802  0.000000      2.000000
 -0.007209  0.037202  0.000000      2.000000
  0.000000  0.049603  0.000000      2.000000
  0.007209  0.062004  0.000000      2.000000
  0.014418  0.074405  0.000000      2.000000
 -0.036044 -0.012401  0.000000      2.000000
 -0.028835  0.000000  0.000000      2.000000
 -0.021626  0.012401  0.000000      2.000000
 -0.021626  0.037202  0.000000      2.000000
 -0.014418  0.049603  0.000000      2.000000
 -0.007209  0.062004  0.000000      2.000000
  0.000000  0.074405  0.000000      2.000000
  0.007209  0.086806  0.000000      2.000000
 -0.043253  0.000000  0.000000      2.000000
 -0.036044  0.012401  0.000000      2.000000
 -0.028835  0.024802  0.000000      2.000000
 -0.028835  0.049603  0.000000      1.000000
 -0.021626  0.062004  0.000000      2.000000
 -0.014418  0.074405  0.000000      2.000000
 -0.007209  0.086806  0.000000      2.000000
  0.000000  0.099206  0.000000      1.000000

 I would recommend the setting:
   dimension x,y,z NGX =    41 NGY =   41 NGZ =  123
 SYSTEM =  unknown system
 POSCAR =  crystal structure from VMoWS2 with Hexag

 Startparameter for this run:
   NWRITE =      2    write-flag & timer
   PREC   = normal    normal or accurate (medium, high low for compatibility)
   ISTART =      0    job   : 0-new  1-cont  2-samecut
   ICHARG =      2    charge: 1-file 2-atom 10-const
   ISPIN  =      1    spin polarized calculation?
   LNONCOLLINEAR =      F non collinear calculations
   LSORBIT =      F    spin-orbit coupling
   INIWAV =      1    electr: 0-lowe 1-rand  2-diag
   LASPH  =      F    aspherical Exc in radial PAW
   METAGGA=      F    non-selfconsistent MetaGGA calc.

 Electronic Relaxation 1
   ENCUT  =  280.0 eV  20.58 Ry    4.54 a.u.  13.68 13.68 40.93*2*pi/ulx,y,z
   ENINI  =  280.0     initial cutoff
   ENAUG  =  373.4 eV  augmentation charge cutoff
   NELM   =     60;   NELMIN=  2; NELMDL= -5     # of ELM steps
   EDIFF  = 0.1E-03   stopping-criterion for ELM
   LREAL  =      F    real-space projection
   NLSPLINE    = F    spline interpolate recip. space projectors
   LCOMPAT=      F    compatible to vasp.4.4
   GGA_COMPAT  = T    GGA compatible to vasp.4.4-vasp.4.6
   LMAXPAW     = -100 max onsite density
   LMAXMIX     =    2 max onsite mixed and CHGCAR
   VOSKOWN=      0    Vosko Wilk Nusair interpolation
   ROPT   =    0.00000   0.00000   0.00000   0.00000
 Ionic relaxation
   EDIFFG = 0.1E-02   stopping-criterion for IOM
   NSW    =    100    number of steps for IOM
   NBLOCK =      1;   KBLOCK =    100    inner block; outer block
   IBRION =      1    ionic relax: 0-MD 1-quasi-New 2-CG
   NFREE  =      0    steps in history (QN), initial steepest desc. (CG)
   ISIF   =      3    stress and relaxation
   IWAVPR =     11    prediction:  0-non 1-charg 2-wave 3-comb
   ISYM   =      0    0-nonsym 1-usesym 2-fastsym
   LCORR  =      T    Harris-Foulkes like correction to forces

   POTIM  = 0.5000    time-step for ionic-motion
   TEIN   =    0.0    initial temperature
   TEBEG  =    0.0;   TEEND  =   0.0 temperature during run
   SMASS  =  -3.00    Nose mass-parameter (am)
   estimated Nose-frequenzy (Omega)   =  0.10E-29 period in steps =****** mass=  -0.230E-26a.u.
   SCALEE = 1.0000    scale energy and forces
   NPACO  =    256;   APACO  = 16.0  distance and # of slots for P.C.
   PSTRESS=    0.0 pullay stress

  Mass of Ions in am
   POMASS =  50.94 95.94183.85 32.07
  Ionic Valenz
   ZVAL   =   5.00  6.00  6.00  6.00
  Atomic Wigner-Seitz radii
  virtual crystal weights
   VCA    =   1.00  1.00  1.00  1.00
   NELECT =     159.0000    total number of electrons
   NUPDOWN=      -1.0000    fix difference up-down

 DOS related values:
   EMIN   =  10.00;   EMAX   =-10.00  energy-range for DOS
   EFERMI =   0.00
   ISMEAR =     0;   SIGMA  =   0.20  broadening in eV -4-tet -1-fermi 0-gaus

 Electronic relaxation 2 (details)
   IALGO  =     38    algorithm
   LDIAG  =      T    sub-space diagonalisation (order eigenvalues)
   LSUBROT=      F    optimize rotation matrix (better conditioning)
   TURBO    =      0    0=normal 1=particle mesh
   IRESTART =      0    0=no restart 2=restart with 2 vectors
   NREBOOT  =      0    no. of reboots
   NMIN     =      0    reboot dimension
   EREF     =   0.00    reference energy to select bands
[...]
      1.92100      3.35900     28.66200         0.747529      0.003033     -1.444138
      3.85900      3.35900      1.33800        -0.059138      0.009931      0.764391
     -0.96900      5.03900     28.66200         0.157515      0.040565     -2.862916
      0.96900      5.03900      1.33800         0.582357     -0.013012      2.084998
     -3.85900      6.71900     28.66200        -0.235976      0.528429     -1.400723
     -1.92100      6.71900      1.33800        -0.471965      0.548504      2.128488
      4.81100      5.03900     28.66200        -0.327846     -0.676923     -1.426079
      6.74900      5.03900      1.33800        -0.544276     -0.677648      2.132968
      1.92100      6.71900     28.66200         0.352202     -0.684476     -2.187736
      3.85900      6.71900      1.33800        -0.501911     -0.701034      2.137099
     -0.96900      8.39900     28.66200        -0.645946     -0.151876     -2.144071
      0.96900      8.39900      1.33800        -0.204396     -0.138741      2.889434
    total drift:                                0.000061      0.000127     -0.000014

  FREE ENERGIE OF THE ION-ELECTRON SYSTEM (eV)
  free  energy   TOTEN  =      -186.82616812 eV

  energy  without entropy=     -186.48501075  energy(sigma->0) =     -186.65558944

 Quasi-Newton relaxation of ions (Broydens 2nd method)
  g(Force)  = 0.474E+01   g(Stress)= 0.349E+00

 Reset! Starting new Quasi-Newton update for ions

[...]

 d Force = 0.2406784E+01[ 0.697E-01, 0.474E+01]  d Energy = 0.1829684E+01 0.577E+00
 d Force = 0.9608816E+03[ 0.943E+03, 0.979E+03]  d Ewald  = 0.2511215E+04-0.155E+04

[...]

 retain information from N=  1 steps
 eigenvalues of (default step * inverse Hessian matrix)
  average eigenvalue of G=   0.2400
 eigenvalue spectrum of G is  0.2400

[...]

 d Force = 0.3716079E-01[ 0.367E-01, 0.377E-01]  d Energy = 0.1095641E+01-0.106E+01
 d Force =-0.3077617E+01[-0.315E+01,-0.301E+01]  d Ewald  =-0.1924321E+04 0.192E+04

[...]

 d Force = 0.4965542E+00[ 0.444E+00, 0.549E+00]  d Energy = 0.1021154E+01-0.525E+00
 d Force = 0.4105408E+03[ 0.420E+03, 0.401E+03]  d Ewald  =-0.1527070E+04 0.194E+04

[...]

 d Force = 0.1586383E+00[ 0.132E+00, 0.185E+00]  d Energy = 0.1653702E+00-0.673E-02
 d Force =-0.1276589E+02[-0.122E+02,-0.133E+02]  d Ewald  = 0.1625062E+03-0.175E+03

[...]

 d Force = 0.6301992E-01[ 0.522E-01, 0.738E-01]  d Energy = 0.6437900E-01-0.136E-02
 d Force =-0.2755600E+02[-0.272E+02,-0.279E+02]  d Ewald  = 0.1217592E+03-0.149E+03

[...]

 d Force =-0.1984516E-02[-0.379E-02,-0.177E-03]  d Energy =-0.2001553E-02 0.170E-04
 d Force =-0.2023182E+01[-0.200E+01,-0.204E+01]  d Ewald  =-0.1636697E+02 0.143E+02

[...]

 d Force = 0.3111419E-02[ 0.283E-02, 0.339E-02]  d Energy = 0.3001758E-02 0.110E-03
 d Force =-0.2936717E+00[-0.259E+00,-0.329E+00]  d Ewald  =-0.6907637E+01 0.661E+01

[...]

 d Force =-0.3380010E-04[-0.768E-04, 0.923E-05]  d Energy = 0.2774133E-04-0.615E-04
 d Force = 0.3941670E+00[ 0.394E+00, 0.394E+00]  d Ewald  =-0.2166459E+02 0.221E+02

[...]

 d Force = 0.9794490E-03[ 0.941E-03, 0.102E-02]  d Energy = 0.6529418E-03 0.327E-03
 d Force = 0.4502443E+01[ 0.451E+01, 0.450E+01]  d Ewald  =-0.2129624E+02 0.258E+02

[...]

 FEWALD executed in parallel

[...]

 eigenvalue-minimisations  :  9440
 total energy-change (2. order) : 0.4862186E-03  (-0.6376489E-04)
 number of electron     158.9999770 magnetization
 augmentation part       -4.2209917 magnetization

 Broyden mixing:
  rms(total) = 0.29041E-02    rms(broyden)= 0.28941E-02
  rms(prec ) = 0.31237E-02
  weight for this iteration     100.00

 eigenvalues of (default mixing * dielectric matrix)
  average eigenvalue GAMMA=   0.4939
  0.8017  0.1861

[...]

----------------------------------------- Iteration   24(   4)  ---------------------------------------

 eigenvalue-minimisations  :  6000
 total energy-change (2. order) :-0.9376169E-05  (-0.4935056E-05)
 number of electron     158.9999770 magnetization
 augmentation part       -4.2209917 magnetization

 Free energy of the ion-electron system (eV)
  alpha Z        PSCENC =        89.55928970
  Ewald energy   TEWEN  =     44415.66494638
  -Hartree energ DENC   =    -50423.56631384
  -exchange      EXHF   =         0.00000000
  -V(xc)+E(xc)   XCENC  =      -233.51092065
  PAW double counting   =      4099.27061112    -3515.32855916
  entropy T*S    EENTRO =        -0.13336500
  eigenvalues    EBANDS =     -1385.73405462
  atomic energy  EATOM  =      6761.44252427
  Solvation  Ediel_sol  =         0.00000000
  free energy    TOTEN  =      -192.33584180 eV

  energy without entropy =     -192.20247680  energy(sigma->0) =     -192.26915930

 average (electrostatic) potential at core
  the test charge radii are     1.2064  1.2296  1.1823  0.9698
  (the norm of the test charge is              1.0000)
       1 -49.7865       2 -49.7834       3 -49.6978       4 -47.1529       5 -47.0593
       6 -47.0559       7 -49.5928       8 -49.5883       9 -49.6152      10 -95.2368
      11 -95.1037      12 -95.2389      13 -95.2259      14 -94.9925      15 -95.1042
      16 -94.5622      17 -94.4893      18 -94.8485      19 -94.6800      20 -94.5610
      21 -94.6815      22 -94.9586      23 -95.0023      24 -95.1231      25 -95.0065
      26 -95.1226      27 -95.2872

 E-fermi :  -3.2467     XC(G=0):  -2.5627     alpha+bet : -2.3687

[...]

 k-point    34 :       0.5000    0.5000    0.0000
  band No.  band energies     occupation
      1     -17.5063      2.00000
      2     -17.3493      2.00000
      3     -16.7450      2.00000
      4     -16.7164      2.00000
      5     -16.5824      2.00000
      6     -16.5510      2.00000
      7     -16.2764      2.00000
      8     -16.1988      2.00000
      9     -16.1165      2.00000
     10     -16.0810      2.00000
     11     -15.8788      2.00000
     12     -15.8330      2.00000
     13     -15.7677      2.00000
     14     -15.6983      2.00000
     15     -15.6419      2.00000
     16     -15.4308      2.00000
     17     -15.3382      2.00000
     18     -15.2165      2.00000
     19      -9.8147      2.00000
     20      -9.3526      2.00000
     21      -9.3033      2.00000
     22      -9.0081      2.00000
     23      -8.9412      2.00000
     24      -8.8324      2.00000
     25      -8.6775      2.00000
     26      -8.6617      2.00000
     27      -8.4413      2.00000
     28      -8.2931      2.00000
     29      -8.2305      2.00000
     30      -8.1336      2.00000
     31      -8.0819      2.00000
     32      -8.0125      2.00000
     33      -7.9227      2.00000
     34      -7.8464      2.00000
     35      -7.7455      2.00000
     36      -7.6822      2.00000
     37      -7.6421      2.00000
     38      -7.5947      2.00000
     39      -7.4659      2.00000
     40      -7.3354      2.00000
     41      -7.0913      2.00000
     42      -7.0708      2.00000
     43      -7.0014      2.00000
     44      -6.8523      2.00000
     45      -6.8259      2.00000
     46      -6.7119      2.00000
     47      -6.6499      2.00000
     48      -6.5880      2.00000
     49      -6.5205      2.00000
     50      -6.4600      2.00000
     51      -6.4111      2.00000
     52      -6.3448      2.00000
     53      -6.2675      2.00000
     54      -6.1807      2.00000
     55      -6.1102      2.00000
     56      -6.0957      2.00000
     57      -6.0087      2.00000
     58      -5.8452      2.00000
     59      -5.8140      2.00000
     60      -5.7914      2.00000
[...]
    106      -0.4051      0.00000
    107      -0.2957      0.00000
    108      -0.1135      0.00000
    109       0.0220      0.00000
    110       0.2010      0.00000
    111       0.2788      0.00000
    112       0.5880      0.00000
    113       0.7745      0.00000
    114       1.0475      0.00000
    115       1.1447      0.00000
    116       1.3279      0.00000
    117       1.5731      0.00000
    118       2.2533      0.00000
    119       2.2670      0.00000
    120       2.4071      0.00000

 soft charge-density along one line, spin component           1
         0         1         2         3         4         5         6         7         8         9
 total charge-density along one line

------------------------ aborting loop because EDIFF is reached ----------------------------------------

  FORCE on cell =-STRESS in cart. coord.  units (eV):
  Direction    XX          YY          ZZ          XY          YZ          ZX
  Alpha Z    89.55929    89.55929    89.55929
  Ewald   49379.40541 49333.97222-54297.72968   -38.96962    21.00726    11.90729
  Hartree 50084.59120 50055.63796-49716.84959   -24.91253    11.76197     6.74652
  E(xc)    -609.61766  -610.66244  -617.89711    -0.90871    -0.94290    -0.53944
  Local  ************************101451.98502    57.05198   -40.89416   -23.32457
  n-local  1213.61110  1215.53316  1248.97602     1.69504    -2.26169    -1.35077
  augment  -213.34943  -212.86359  -214.65499     0.42849     0.97333     0.56629
  Kinetic  2008.68251  2015.15326  2054.64590     5.60669    10.15909     5.87907
  Fock        0.00000     0.00000     0.00000     0.00000     0.00000     0.00000
  Total       0.18516     0.17316    -1.96516    -0.00867    -0.19710    -0.11561
  in kB       0.12410     0.11606    -1.31714    -0.00581    -0.13211    -0.07749

 VOLUME and BASIS-vectors are now :
  energy-cutoff  :      280.00
  volume of cell :     2390.43
      direct lattice vectors                 reciprocal lattice vectors
     8.306068701  4.821696945  0.000000000     0.060039941  0.103968401  0.000000000
    -8.284317380  4.784049058  0.000000000    -0.060512423  0.104241381  0.000000000
     0.000000000  0.000000000 30.000000000     0.000000000  0.000000000  0.033333333

  length of vectors
     9.604141748  9.566453881 30.000000000     0.120059248  0.120532231  0.033333333

 FORCES acting on ions
    electron-ion (+dipol)            ewald-force                    non-local-force                 convergence-correction
   0.129E+02 0.205E+02 0.149E+02   -.139E+02 -.217E+02 -.146E+02   0.103E+01 0.117E+01 -.242E+00   -.148E-01 -.136E-01 -.191E-01
   0.114E+02 0.216E+02 0.149E+02   -.119E+02 -.230E+02 -.147E+02   0.501E+00 0.148E+01 -.238E+00   -.109E-01 -.228E-01 -.214E-01
   -.131E+02 -.228E+02 -.126E+02   0.138E+02 0.241E+02 0.123E+02   -.765E+00 -.133E+01 0.288E+00   -.428E-02 0.387E-02 0.192E-01
   0.614E+01 0.117E+02 0.367E+01   -.603E+01 -.114E+02 -.366E+01   -.109E+00 -.190E+00 -.894E-02   -.558E-02 -.103E-01 -.418E-02
   0.568E+01 -.421E+01 0.187E+01   -.550E+01 0.404E+01 -.189E+01   -.216E+00 0.167E+00 0.205E-01   0.319E-01 0.112E-01 0.202E-02
   -.597E+01 0.266E+01 0.185E+01   0.576E+01 -.260E+01 -.187E+01   0.249E+00 -.106E+00 0.197E-01   -.116E-01 0.254E-01 0.861E-03
   -.187E+02 -.269E+02 -.228E+02   0.192E+02 0.276E+02 0.226E+02   -.564E+00 -.707E+00 0.219E+00   0.474E-01 -.207E-02 0.659E-02
   -.142E+02 -.298E+02 -.227E+02   0.145E+02 0.306E+02 0.225E+02   -.326E+00 -.829E+00 0.216E+00   -.191E-01 0.374E-01 0.645E-02
   0.172E+02 0.297E+02 0.188E+02   -.175E+02 -.304E+02 -.187E+02   0.380E+00 0.650E+00 -.166E+00   0.376E-02 -.359E-02 -.389E-02
   -.689E+01 -.689E+01 0.613E+03   0.732E+01 0.822E+01 -.616E+03   -.455E+00 -.130E+01 0.351E+01   0.324E-01 -.603E-02 -.135E-01
   -.130E+02 -.199E+02 -.606E+03   0.135E+02 0.205E+02 0.609E+03   -.573E+00 -.643E+00 -.367E+01   0.551E-01 0.140E-02 -.456E-01
   -.272E+01 -.956E+01 0.614E+03   0.365E+01 0.106E+02 -.617E+03   -.904E+00 -.102E+01 0.351E+01   -.182E-01 0.176E-01 -.195E-01
   -.110E+02 -.187E+02 -.634E+03   0.112E+02 0.190E+02 0.638E+03   -.206E+00 -.355E+00 -.403E+01   0.174E-01 0.185E-01 0.128E-01
   -.848E+01 -.148E+02 0.607E+03   0.915E+01 0.160E+02 -.610E+03   -.680E+00 -.120E+01 0.321E+01   0.167E-01 0.418E-01 0.348E-01
   -.106E+02 -.214E+02 -.606E+03   0.109E+02 0.221E+02 0.609E+03   -.272E+00 -.820E+00 -.367E+01   -.304E-01 0.533E-01 -.382E-01
   -.810E+01 -.112E+02 0.489E+03   0.844E+01 0.111E+02 -.494E+03   -.365E+00 0.820E-01 0.486E+01   0.284E-01 -.252E-01 0.356E-01
   0.389E+01 0.668E+01 -.482E+03   -.374E+01 -.644E+01 0.486E+03   -.116E+00 -.206E+00 -.456E+01   -.320E-01 -.338E-01 -.342E-01
   -.632E+01 -.108E+02 0.506E+03   0.613E+01 0.105E+02 -.511E+03   0.174E+00 0.294E+00 0.524E+01   0.104E-01 0.597E-02 -.178E-02
   0.134E+01 0.939E+01 -.497E+03   -.902E+00 -.898E+01 0.502E+03   -.449E+00 -.385E+00 -.505E+01   0.175E-01 -.143E-01 -.124E-01
   -.564E+01 -.127E+02 0.489E+03   0.542E+01 0.130E+02 -.494E+03   0.250E+00 -.274E+00 0.486E+01   -.442E-01 0.951E-02 0.279E-01
   0.742E+01 0.575E+01 -.497E+03   -.729E+01 -.516E+01 0.502E+03   -.114E+00 -.583E+00 -.505E+01   -.131E-01 0.198E-02 -.281E-02
   0.115E+02 0.203E+02 0.586E+03   -.121E+02 -.212E+02 -.590E+03   0.589E+00 0.102E+01 0.322E+01   -.307E-01 -.334E-01 0.130E-01
   0.975E+01 0.117E+02 -.589E+03   -.108E+02 -.132E+02 0.593E+03   0.104E+01 0.159E+01 -.311E+01   0.115E-01 -.221E-01 0.818E-02
   0.705E+01 0.239E+02 0.610E+03   -.738E+01 -.246E+02 -.614E+03   0.330E+00 0.753E+00 0.365E+01   0.339E-02 -.210E-01 0.158E-01
   0.540E+01 0.146E+02 -.590E+03   -.621E+01 -.163E+02 0.593E+03   0.835E+00 0.168E+01 -.312E+01   -.299E-01 -.164E-01 0.687E-03
   0.172E+02 0.179E+02 0.610E+03   -.177E+02 -.186E+02 -.614E+03   0.487E+00 0.660E+00 0.365E+01   -.675E-02 -.309E-02 0.901E-02
   0.739E+01 0.127E+02 -.621E+03   -.807E+01 -.139E+02 0.625E+03   0.675E+00 0.114E+01 -.348E+01   0.397E-02 0.146E-01 0.517E-03
   -.433E+00 -.751E+00 -.471E-01   -.533E-13 0.178E-14 -.455E-12   0.426E+00 0.738E+00 0.755E-01   0.845E-02 0.148E-01 -.231E-01

 POSITION                                       TOTAL-FORCE (eV/Angst)
      5.68540      3.45961     -0.05396         0.007705      0.005050     -0.036893
      2.91432      5.05911     -0.05431        -0.000093      0.008857     -0.035147
      2.63635      1.37630      0.04864        -0.012794     -0.022565      0.035616
      5.57831      6.48252     -0.01052        -0.006376      0.013409      0.001498
      0.04878     -0.03119     -0.00567        -0.008889      0.006091      0.003041
     -5.56986      3.21392     -0.00560         0.019468     -0.011899      0.002189
     -0.17439      2.92941      0.06992         0.006143     -0.004851      0.018389
     -2.89894      4.50346      0.06972        -0.006100      0.006704      0.017739
      0.18070      6.69100     -0.06104         0.004257      0.004017     -0.013963
     -0.93207      1.55351     28.35307         0.008499      0.016941      0.012256
      0.95683      1.57647      1.65386        -0.017870     -0.014035      0.022565
     -3.71107      3.15981     28.35086         0.011717      0.019061      0.003902
     -1.87061      3.13847      1.74278         0.000390      0.003209      0.013961
     -6.42147      4.82040     28.37516         0.004694      0.007368      0.026771
     -4.63556      4.80621      1.65418        -0.002411     -0.020136      0.024659
      1.85840      3.20070     28.71626         0.001527     -0.011192      0.017076
      3.70068      3.22087      1.26186         0.000969      0.002794     -0.024350
     -0.90625      4.80791     28.66778        -0.003608     -0.006953      0.012322
      0.94484      4.80194      1.31032         0.010495      0.007355     -0.009126
     -3.68001      6.39963     28.71574        -0.010787     -0.003789      0.015059
     -1.83707      6.40875      1.31003         0.001847      0.012342     -0.008610
      4.61334      4.80261     28.40495         0.007663      0.016579     -0.030259
      6.45655      4.80060      1.57471        -0.013619     -0.011319     -0.005322
      1.89614      6.41267     28.33363        -0.000391      0.007784     -0.023235
      3.68962      6.39756      1.57674        -0.005272     -0.022292     -0.000264
     -0.91769      8.03786     28.33365         0.009765      0.004117     -0.022501
      0.96176      8.04339      1.66723        -0.006929     -0.012647     -0.017372
    total drift:                                0.001593      0.001704      0.005216

  FREE ENERGIE OF THE ION-ELECTRON SYSTEM (eV)
  free  energy   TOTEN  =      -192.33584180 eV

  energy  without entropy=     -192.20247680  energy(sigma->0) =     -192.26915930

 d Force = 0.4903434E-03[ 0.454E-03, 0.527E-03]  d Energy = 0.4596517E-03 0.307E-04
 d Force = 0.1805043E+01[ 0.181E+01, 0.180E+01]  d Ewald  = 0.1203816E+02-0.102E+02

 Quasi-Newton relaxation of ions (Broydens 2nd method)
  g(Force)  = 0.800E-03   g(Stress)= 0.115E-03

 retain information from N=  1 steps
 eigenvalues of (default step * inverse Hessian matrix)
  average eigenvalue of G=   0.9263
 eigenvalue spectrum of G is  0.9263

 reached required accuracy - stopping structural energy minimisation