 vasp.5.4.1 05Feb16 (build Jul 05 2020 17:13:04) complex

 executed on           IFC91_ompi date 2024.04.25  13:26:29

 INCAR:
 POTCAR:   PAW_PBE V 08Apr2002
 POTCAR:   PAW_PBE Mo 08Apr2002
 POTCAR:   PAW_PBE W 08Apr2002
 POTCAR:    PAW_PBE S 17Jan2003

 POTCAR:   PAW_PBE V 08Apr2002
   VRHFIN =V: p6 d4 s1

   TITEL  = PAW_PBE V 08Apr2002
   POMASS =   50.941; ZVAL   =    5.000    mass and valenz
   ENMAX  =  192.543; ENMIN  =  144.408 eV
   QCUT   =   -3.762; QGAM   =    7.524    optimization parameters

   Description
     l     E      TYP  RCUT    TYP  RCUT
     2   .000     23  2.700
     2   .000     23  2.700
     0   .000     23  2.700
     0  2.000     23  2.700
     1   .000     23  2.700
     1  2.000     23  2.700
     3   .000      7   .000

 POTCAR:   PAW_PBE Mo 08Apr2002
   VRHFIN =Mo: 4p5s4d

[...]

 POTCAR:   PAW_PBE W 08Apr2002
   VRHFIN =W : 6s5d

   TITEL  = PAW_PBE W 08Apr2002
   POMASS =  183.850; ZVAL   =    6.000    mass and valenz
   ENMAX  =  223.057; ENMIN  =  167.293 eV
   QCUT   =   -4.049; QGAM   =    8.098    optimization parameters

[...]

 POTCAR:    PAW_PBE S 17Jan2003
   VRHFIN =S : s2p4

   TITEL  = PAW_PBE S 17Jan2003
   POMASS =   32.066; ZVAL   =    6.000    mass and valenz
   ENMAX  =  280.000; ENMIN  =  194.016 eV
   QCUT   =   -4.360; QGAM   =    8.721    optimization parameters

   Description
     l     E      TYP  RCUT    TYP  RCUT
     0   .000     23  1.900
     0   .000     23  1.900
     1   .000     23  1.900
     1   .000     23  1.900
     2   .000     23  1.900

 PAW_PBE V 08Apr2002                    :
 PAW_PBE Mo 08Apr2002                   :
 PAW_PBE W 08Apr2002                    :
  PAW_PBE S 17Jan2003                   :

 POSCAR: crystal structure from VMoWS2 with Hexag
  positions in cartesian coordinates
 exchange correlation table for  LEXCH =        8
   RHO(1)=    0.500       N(1)  =     2000
   RHO(2)=  100.500       N(2)  =     4000

 ion  position               nearest neighbor table
   1  0.333  0.333  0.000-  13 2.34  16 2.34  19 2.36  18 2.36  11 2.36  10 2.36
   2  1.000  0.333  0.000-  25 2.34  10 2.34  13 2.36  12 2.36  22 2.36  23 2.36
   3  0.667  0.000  0.000-  17 2.34  26 2.34  23 2.36  22 2.36  21 2.36  20 2.36
   4  0.333  0.000  0.000-  11 2.34  20 2.34  17 2.36  16 2.36  15 2.36  14 2.36   8 3.34   7 3.34
                             5 3.36   6 3.36
   5  0.000  0.667  0.000-  27 2.34  12 2.34  14 2.36  15 2.36  24 2.36  25 2.36   9 3.34   7 3.34
                             8 3.34   4 3.36   6 3.36
   6  0.667  0.333  0.000-  19 2.34  22 2.34  25 2.36  24 2.36  17 2.36  16 2.36   9 3.34   5 3.36
                             4 3.36
   7  0.000  0.000  0.000-  23 2.34  14 2.34  11 2.36  10 2.36  27 2.36  26 2.36   5 3.34   4 3.34
                             9 3.36
   8  0.333  0.667  0.000-  15 2.34  18 2.34  20 2.36  21 2.36  13 2.36  12 2.36   4 3.34   5 3.34
                             9 3.34
   9  0.667  0.667  0.000-  21 2.34  24 2.34  27 2.36  26 2.36  19 2.36  18 2.36   5 3.34   6 3.34
                             8 3.34   7 3.36
  10  0.111  0.222  0.955-   2 2.34   7 2.36   1 2.36
  11  0.222  0.111  0.045-   4 2.34   7 2.36   1 2.36
  12  0.111  0.556  0.955-   5 2.34   2 2.36   8 2.36
  13  0.222  0.444  0.045-   1 2.34   2 2.36   8 2.36
  14  0.111  0.889  0.955-   7 2.34   5 2.36   4 2.36
  15  0.222  0.777  0.045-   8 2.34   5 2.36   4 2.36
  16  0.444  0.222  0.955-   1 2.34   4 2.36   6 2.36
  17  0.556  0.111  0.045-   3 2.34   4 2.36   6 2.36
  18  0.444  0.556  0.955-   8 2.34   1 2.36   9 2.36
  19  0.556  0.444  0.045-   6 2.34   1 2.36   9 2.36
  20  0.444  0.889  0.955-   4 2.34   8 2.36   3 2.36
  21  0.556  0.777  0.045-   9 2.34   8 2.36   3 2.36
  22  0.777  0.222  0.955-   6 2.34   3 2.36   2 2.36
  23  0.889  0.111  0.045-   7 2.34   3 2.36   2 2.36
  24  0.777  0.556  0.955-   9 2.34   6 2.36   5 2.36
  25  0.889  0.444  0.045-   2 2.34   6 2.36   5 2.36
  26  0.777  0.889  0.955-   3 2.34   9 2.36   7 2.36
  27  0.889  0.777  0.045-   5 2.34   9 2.36   7 2.36

IMPORTANT INFORMATION: All symmetrisations will be switched off!
NOSYMM: (Re-)initialisation of all symmetry stuff for point group C_1.

 KPOINTS: K-POINTS 	#supercell of CrS2 in hexagona

Automatic generation of k-mesh.
Space group operators:
 irot       det(A)        alpha          n_x          n_y          n_z        tau_x        tau_y        tau_z
    1     1.000000     0.000000     1.000000     0.000000     0.000000     0.000000     0.000000     0.000000

 Subroutine IBZKPT returns following result:

 Found     34 irreducible k-points:

 Following reciprocal coordinates:
            Coordinates               Weight
  0.000000  0.000000  0.000000      1.000000
  0.125000  0.000000  0.000000      2.000000
  0.250000  0.000000  0.000000      2.000000
  0.375000  0.000000  0.000000      2.000000
  0.500000  0.000000  0.000000      1.000000
  0.000000  0.125000  0.000000      2.000000
  0.125000  0.125000  0.000000      2.000000
  0.250000  0.125000  0.000000      2.000000
  0.375000  0.125000  0.000000      2.000000
  0.500000  0.125000  0.000000      2.000000
 -0.375000  0.125000  0.000000      2.000000
 -0.250000  0.125000  0.000000      2.000000
 -0.125000  0.125000  0.000000      2.000000
  0.000000  0.250000  0.000000      2.000000
  0.125000  0.250000  0.000000      2.000000
  0.250000  0.250000  0.000000      2.000000
  0.375000  0.250000  0.000000      2.000000
  0.500000  0.250000  0.000000      2.000000
 -0.375000  0.250000  0.000000      2.000000
 -0.250000  0.250000  0.000000      2.000000
 -0.125000  0.250000  0.000000      2.000000
 -0.000000  0.375000  0.000000      2.000000
  0.125000  0.375000  0.000000      2.000000
  0.250000  0.375000  0.000000      2.000000
  0.375000  0.375000  0.000000      2.000000
  0.500000  0.375000  0.000000      2.000000
 -0.375000  0.375000  0.000000      2.000000
 -0.250000  0.375000  0.000000      2.000000
 -0.125000  0.375000  0.000000      2.000000
  0.000000  0.500000  0.000000      1.000000
  0.125000  0.500000  0.000000      2.000000
  0.250000  0.500000  0.000000      2.000000
  0.375000  0.500000  0.000000      2.000000
  0.500000  0.500000  0.000000      1.000000

 Following cartesian coordinates:
            Coordinates               Weight
  0.000000  0.000000  0.000000      1.000000
  0.007209  0.012401  0.000000      2.000000
  0.014418  0.024802  0.000000      2.000000
  0.021626  0.037202  0.000000      2.000000
  0.028835  0.049603  0.000000      1.000000
 -0.007209  0.012401  0.000000      2.000000
  0.000000  0.024802  0.000000      2.000000
  0.007209  0.037202  0.000000      2.000000
  0.014418  0.049603  0.000000      2.000000
  0.021626  0.062004  0.000000      2.000000
 -0.028835 -0.024802  0.000000      2.000000
 -0.021626 -0.012401  0.000000      2.000000
 -0.014418  0.000000  0.000000      2.000000
 -0.014418  0.024802  0.000000      2.000000
 -0.007209  0.037202  0.000000      2.000000
  0.000000  0.049603  0.000000      2.000000
  0.007209  0.062004  0.000000      2.000000
  0.014418  0.074405  0.000000      2.000000
 -0.036044 -0.012401  0.000000      2.000000
 -0.028835  0.000000  0.000000      2.000000
 -0.021626  0.012401  0.000000      2.000000
 -0.021626  0.037202  0.000000      2.000000
 -0.014418  0.049603  0.000000      2.000000
 -0.007209  0.062004  0.000000      2.000000
  0.000000  0.074405  0.000000      2.000000
  0.007209  0.086806  0.000000      2.000000
 -0.043253  0.000000  0.000000      2.000000
 -0.036044  0.012401  0.000000      2.000000
 -0.028835  0.024802  0.000000      2.000000
 -0.028835  0.049603  0.000000      1.000000
 -0.021626  0.062004  0.000000      2.000000
 -0.014418  0.074405  0.000000      2.000000
 -0.007209  0.086806  0.000000      2.000000
  0.000000  0.099206  0.000000      1.000000

 I would recommend the setting:
   dimension x,y,z NGX =    41 NGY =   41 NGZ =  123
 SYSTEM =  unknown system
 POSCAR =  crystal structure from VMoWS2 with Hexag

 Startparameter for this run:
   NWRITE =      2    write-flag & timer
   PREC   = normal    normal or accurate (medium, high low for compatibility)
   ISTART =      0    job   : 0-new  1-cont  2-samecut
   ICHARG =      2    charge: 1-file 2-atom 10-const
   ISPIN  =      1    spin polarized calculation?
   LNONCOLLINEAR =      F non collinear calculations
   LSORBIT =      F    spin-orbit coupling
   INIWAV =      1    electr: 0-lowe 1-rand  2-diag
   LASPH  =      F    aspherical Exc in radial PAW
   METAGGA=      F    non-selfconsistent MetaGGA calc.

 Electronic Relaxation 1
   ENCUT  =  280.0 eV  20.58 Ry    4.54 a.u.  13.68 13.68 40.93*2*pi/ulx,y,z
   ENINI  =  280.0     initial cutoff
   ENAUG  =  373.4 eV  augmentation charge cutoff
   NELM   =     60;   NELMIN=  2; NELMDL= -5     # of ELM steps
   EDIFF  = 0.1E-03   stopping-criterion for ELM
   LREAL  =      F    real-space projection
   NLSPLINE    = F    spline interpolate recip. space projectors
   LCOMPAT=      F    compatible to vasp.4.4
   GGA_COMPAT  = T    GGA compatible to vasp.4.4-vasp.4.6
   LMAXPAW     = -100 max onsite density
   LMAXMIX     =    2 max onsite mixed and CHGCAR
   VOSKOWN=      0    Vosko Wilk Nusair interpolation
   ROPT   =    0.00000   0.00000   0.00000   0.00000
 Ionic relaxation
   EDIFFG = 0.1E-02   stopping-criterion for IOM
   NSW    =    100    number of steps for IOM
   NBLOCK =      1;   KBLOCK =    100    inner block; outer block
   IBRION =      1    ionic relax: 0-MD 1-quasi-New 2-CG
   NFREE  =      0    steps in history (QN), initial steepest desc. (CG)
   ISIF   =      3    stress and relaxation
   IWAVPR =     11    prediction:  0-non 1-charg 2-wave 3-comb
   ISYM   =      0    0-nonsym 1-usesym 2-fastsym
   LCORR  =      T    Harris-Foulkes like correction to forces

   POTIM  = 0.5000    time-step for ionic-motion
   TEIN   =    0.0    initial temperature
   TEBEG  =    0.0;   TEEND  =   0.0 temperature during run
   SMASS  =  -3.00    Nose mass-parameter (am)
   estimated Nose-frequenzy (Omega)   =  0.10E-29 period in steps =****** mass=  -0.230E-26a.u.
   SCALEE = 1.0000    scale energy and forces
   NPACO  =    256;   APACO  = 16.0  distance and # of slots for P.C.
   PSTRESS=    0.0 pullay stress

  Mass of Ions in am
   POMASS =  50.94 95.94183.85 32.07
  Ionic Valenz
   ZVAL   =   5.00  6.00  6.00  6.00
  Atomic Wigner-Seitz radii
  virtual crystal weights
   VCA    =   1.00  1.00  1.00  1.00
   NELECT =     159.0000    total number of electrons
   NUPDOWN=      -1.0000    fix difference up-down

 DOS related values:
   EMIN   =  10.00;   EMAX   =-10.00  energy-range for DOS
   EFERMI =   0.00
   ISMEAR =     0;   SIGMA  =   0.20  broadening in eV -4-tet -1-fermi 0-gaus

 Electronic relaxation 2 (details)
   IALGO  =     38    algorithm
   LDIAG  =      T    sub-space diagonalisation (order eigenvalues)
   LSUBROT=      F    optimize rotation matrix (better conditioning)
   TURBO    =      0    0=normal 1=particle mesh
   IRESTART =      0    0=no restart 2=restart with 2 vectors
   NREBOOT  =      0    no. of reboots
   NMIN     =      0    reboot dimension
   EREF     =   0.00    reference energy to select bands
[...]
     -3.85900      3.35900     28.66200         0.612376     -0.546301     -2.170164
     -1.92100      3.35900      1.33800         0.255419     -0.512886      1.407042
     -6.74900      5.03900     28.66200        -0.034029      0.009187     -2.912209
     -4.81100      5.03900      1.33800         0.044774     -0.017486      2.892473
      1.92100      3.35900     28.66200        -0.729982     -0.010569     -2.104713
      3.85900      3.35900      1.33800         0.734892      0.011957      2.107566
     -0.96900      5.03900     28.66200         0.459470     -0.569889     -2.113755
      0.96900      5.03900      1.33800        -0.650406     -0.559643      2.191290
     -3.85900      6.71900     28.66200         0.615373      0.574593     -2.203443
     -1.92100      6.71900      1.33800        -0.450124      0.566481      2.117181
      4.81100      5.03900     28.66200         0.909402     -0.020235     -1.486306
      6.74900      5.03900      1.33800        -0.746793     -0.005173      1.432559
      1.92100      6.71900     28.66200        -0.023738      0.014847     -2.910425
      3.85900      6.71900      1.33800         0.739423      0.008711      2.106906
     -0.96900      8.39900     28.66200        -0.639585      0.005288     -2.107446
      0.96900      8.39900      1.33800        -0.277791     -0.021971      2.935800
    total drift:                               -0.000034      0.000082      0.000082

  FREE ENERGIE OF THE ION-ELECTRON SYSTEM (eV)
  free  energy   TOTEN  =      -186.89128307 eV

  energy  without entropy=     -186.54998716  energy(sigma->0) =     -186.72063512

 Quasi-Newton relaxation of ions (Broydens 2nd method)
  g(Force)  = 0.469E+01   g(Stress)= 0.355E+00

 Reset! Starting new Quasi-Newton update for ions

[...]

 d Force = 0.2382922E+01[ 0.668E-01, 0.470E+01]  d Energy = 0.1810980E+01 0.572E+00
 d Force = 0.9584880E+03[ 0.941E+03, 0.976E+03]  d Ewald  = 0.2509786E+04-0.155E+04

[...]

 retain information from N=  1 steps
 eigenvalues of (default step * inverse Hessian matrix)
  average eigenvalue of G=   0.2445
 eigenvalue spectrum of G is  0.2445

[...]

 d Force = 0.3531317E-01[ 0.344E-01, 0.363E-01]  d Energy = 0.1095116E+01-0.106E+01
 d Force =-0.3026615E+01[-0.310E+01,-0.296E+01]  d Ewald  =-0.1927847E+04 0.192E+04

[...]

 d Force = 0.4791929E+00[ 0.421E+00, 0.537E+00]  d Energy = 0.1002173E+01-0.523E+00
 d Force = 0.4129515E+03[ 0.423E+03, 0.403E+03]  d Ewald  =-0.1526489E+04 0.194E+04

[...]

 d Force = 0.5993105E-01[ 0.511E-01, 0.687E-01]  d Energy = 0.6330236E-01-0.337E-02
 d Force =-0.1089692E+02[-0.106E+02,-0.112E+02]  d Ewald  = 0.1648732E+03-0.176E+03

[...]

 d Force = 0.2260365E-02[ 0.210E-02, 0.242E-02]  d Energy = 0.2138497E-02 0.122E-03
 d Force = 0.8958119E+00[ 0.903E+00, 0.888E+00]  d Ewald  = 0.9433659E+01-0.854E+01

[...]

 d Force = 0.2079899E-02[ 0.190E-02, 0.226E-02]  d Energy = 0.1880062E-02 0.200E-03
 d Force =-0.1008332E+00[-0.917E-01,-0.110E+00]  d Ewald  =-0.1474992E+02 0.146E+02

[...]

 eigenvalue-minimisations  :  6920
 total energy-change (2. order) : 0.1281612E-03  (-0.1886723E-04)
 number of electron     159.0000002 magnetization
 augmentation part       -4.2180021 magnetization

[...]

 eigenvalues of (default mixing * dielectric matrix)
  average eigenvalue GAMMA=   0.7613
  2.3489  0.7514  0.7514  0.3539  0.1776  0.1847

[...]

 d Force = 0.3829805E-02[ 0.194E-02, 0.572E-02]  d Energy = 0.3449703E-02 0.380E-03
 d Force = 0.5208378E+01[ 0.532E+01, 0.509E+01]  d Ewald  =-0.8314733E+01 0.135E+02

[...]

 FEWALD executed in parallel

[...]

 Broyden mixing:
  rms(total) = 0.30857E-02    rms(broyden)= 0.30822E-02
  rms(prec ) = 0.32703E-02
  weight for this iteration     100.00

[...]

----------------------------------------- Iteration   22(   2)  ---------------------------------------

 eigenvalue-minimisations  :  7640
 total energy-change (2. order) :-0.3749436E-04  (-0.2401213E-04)
 number of electron     159.0000004 magnetization
 augmentation part       -4.2199619 magnetization

 Free energy of the ion-electron system (eV)
  alpha Z        PSCENC =        89.18965153
  Ewald energy   TEWEN  =     44257.29123861
  -Hartree energ DENC   =    -50264.02218137
  -exchange      EXHF   =         0.00000000
  -V(xc)+E(xc)   XCENC  =      -233.59456317
  PAW double counting   =      4101.14155575    -3517.22807222
  entropy T*S    EENTRO =        -0.12557697
  eigenvalues    EBANDS =     -1386.55969893
  atomic energy  EATOM  =      6761.44252427
  Solvation  Ediel_sol  =         0.00000000
  free energy    TOTEN  =      -192.46512250 eV

  energy without entropy =     -192.33954553  energy(sigma->0) =     -192.40233402

 average (electrostatic) potential at core
  the test charge radii are     1.2064  1.2296  1.1823  0.9698
  (the norm of the test charge is              1.0000)
       1 -49.8083       2 -49.7339       3 -49.8571       4 -47.0882       5 -47.0277
       6 -47.1112       7 -49.5259       8 -49.6438       9 -49.5459      10 -94.5756
      11 -95.0868      12 -95.1892      13 -94.5558      14 -95.2501      15 -95.3343
      16 -94.9422      17 -94.9856      18 -94.6854      19 -95.0597      20 -95.0894
      21 -94.6883      22 -94.9385      23 -94.5718      24 -95.3057      25 -95.1321
      26 -94.6771      27 -95.3062

 E-fermi :  -3.2204     XC(G=0):  -2.5591     alpha+bet : -2.3589

[...]

 k-point    34 :       0.5000    0.5000    0.0000
  band No.  band energies     occupation
      1     -17.5055      2.00000
      2     -17.3589      2.00000
      3     -16.7595      2.00000
      4     -16.6790      2.00000
      5     -16.6727      2.00000
      6     -16.4366      2.00000
      7     -16.3312      2.00000
      8     -16.2413      2.00000
      9     -16.0440      2.00000
     10     -15.9958      2.00000
     11     -15.9372      2.00000
     12     -15.8466      2.00000
     13     -15.7233      2.00000
     14     -15.7085      2.00000
     15     -15.6552      2.00000
     16     -15.5573      2.00000
     17     -15.2895      2.00000
     18     -15.2548      2.00000
     19      -9.8367      2.00000
     20      -9.4162      2.00000
     21      -9.1693      2.00000
     22      -9.1060      2.00000
     23      -8.9551      2.00000
     24      -8.8274      2.00000
     25      -8.5374      2.00000
     26      -8.4615      2.00000
     27      -8.4194      2.00000
     28      -8.3041      2.00000
     29      -8.2772      2.00000
     30      -8.1961      2.00000
     31      -8.1476      2.00000
     32      -8.1069      2.00000
     33      -7.9667      2.00000
     34      -7.8815      2.00000
     35      -7.7769      2.00000
     36      -7.7357      2.00000
     37      -7.5221      2.00000
     38      -7.3548      2.00000
     39      -7.3117      2.00000
     40      -7.2372      2.00000
     41      -7.1271      2.00000
     42      -7.0829      2.00000
     43      -7.0533      2.00000
     44      -7.0437      2.00000
     45      -6.8177      2.00000
     46      -6.7471      2.00000
     47      -6.6170      2.00000
     48      -6.5830      2.00000
     49      -6.5616      2.00000
     50      -6.5328      2.00000
     51      -6.4516      2.00000
     52      -6.3419      2.00000
     53      -6.2596      2.00000
     54      -6.2227      2.00000
     55      -6.1675      2.00000
     56      -6.0735      2.00000
     57      -6.0440      2.00000
     58      -5.8799      2.00000
     59      -5.8413      2.00000
     60      -5.7982      2.00000
[...]
    106      -0.2797      0.00000
    107      -0.1649      0.00000
    108       0.0133      0.00000
    109       0.0292      0.00000
    110       0.0970      0.00000
    111       0.4333      0.00000
    112       0.7595      0.00000
    113       0.8285      0.00000
    114       0.9110      0.00000
    115       1.0617      0.00000
    116       1.1962      0.00000
    117       1.2651      0.00000
    118       2.1903      0.00000
    119       2.2569      0.00000
    120       2.4093      0.00000

 soft charge-density along one line, spin component           1
         0         1         2         3         4         5         6         7         8         9
 total charge-density along one line

------------------------ aborting loop because EDIFF is reached ----------------------------------------

  FORCE on cell =-STRESS in cart. coord.  units (eV):
  Direction    XX          YY          ZZ          XY          YZ          ZX
  Alpha Z    89.18965    89.18965    89.18965
  Ewald   49147.10173 49234.87668-54124.70396     1.29589     1.81622   -21.10677
  Hartree 49878.31482 49933.57045-49547.63977     0.84146     0.26482   -13.32481
  E(xc)    -611.40445  -609.03397  -617.68475     0.01961    -0.08421     0.93621
  Local  ************************101110.11542    -1.68401    -1.98555    44.34011
  n-local  1216.60343  1213.24360  1248.51140    -0.14379     0.49131     3.02105
  augment  -212.37841  -213.47014  -214.76844     0.39447     0.35679    -0.78678
  Kinetic  2020.45767  2002.01853  2054.99440    -0.72457    -0.84423   -12.98859
  Fock        0.00000     0.00000     0.00000     0.00000     0.00000     0.00000
  Total       0.23985     0.16054    -1.98604    -0.00093     0.01515     0.09042
  in kB       0.16009     0.10716    -1.32564    -0.00062     0.01011     0.06035

 VOLUME and BASIS-vectors are now :
  energy-cutoff  :      280.00
  volume of cell :     2400.34
      direct lattice vectors                 reciprocal lattice vectors
     8.335899974  4.793116758  0.000000000     0.060019920  0.104249484  0.000000000
    -8.341140815  4.802274159  0.000000000    -0.059905469  0.104183983  0.000000000
     0.000000000  0.000000000 30.000000000     0.000000000  0.000000000  0.033333333

  length of vectors
     9.615674528  9.624784008 30.000000000     0.120292750  0.120178898  0.033333333

 FORCES acting on ions
    electron-ion (+dipol)            ewald-force                    non-local-force                 convergence-correction
   0.225E+02 -.280E+00 -.236E+02   -.239E+02 0.267E+00 0.234E+02   0.145E+01 0.897E-02 0.196E+00   0.166E-01 0.266E-02 0.159E-01
   -.266E+02 0.200E+01 0.119E+02   0.281E+02 -.240E+01 -.117E+02   -.156E+01 0.375E+00 -.181E+00   0.336E-01 0.270E-01 0.447E-02
   -.219E+02 0.189E+00 0.229E+02   0.233E+02 0.114E+00 -.228E+02   -.140E+01 -.282E+00 -.147E+00   -.299E-02 -.208E-01 0.965E-03
   -.653E+00 -.231E+02 0.834E+00   0.742E+00 0.229E+02 -.889E+00   0.732E-02 0.119E+00 0.491E-01   -.957E-01 0.234E-01 0.112E-01
   -.745E+01 0.408E+01 0.215E+01   0.728E+01 -.402E+01 -.221E+01   0.232E+00 -.897E-01 0.626E-01   -.517E-01 0.190E-01 0.320E-02
   -.482E+01 0.198E+02 0.159E+01   0.490E+01 -.197E+02 -.157E+01   0.516E-01 -.149E-01 -.305E-01   -.122E+00 -.415E-01 0.137E-01
   0.359E+02 -.546E+01 -.133E+02   -.369E+02 0.572E+01 0.131E+02   0.991E+00 -.309E+00 0.257E+00   0.329E-01 0.543E-01 0.612E-02
   -.345E+02 -.346E+01 0.120E+02   0.356E+02 0.357E+01 -.119E+02   -.111E+01 -.109E+00 -.151E+00   0.321E-01 -.555E-02 0.453E-02
   0.366E+02 0.618E+01 -.162E+02   -.374E+02 -.643E+01 0.160E+02   0.826E+00 0.304E+00 0.196E+00   0.110E-01 -.567E-01 0.805E-02
   0.990E+01 -.545E+01 0.483E+03   -.101E+02 0.546E+01 -.488E+03   0.825E-01 -.896E-01 0.480E+01   0.122E+00 0.856E-01 0.392E-01
   0.226E+02 -.103E+02 -.603E+03   -.234E+02 0.106E+02 0.607E+03   0.792E+00 -.403E+00 -.374E+01   -.257E-01 0.863E-01 -.756E-01
   -.266E+02 0.348E+01 0.604E+03   0.277E+02 -.365E+01 -.607E+03   -.108E+01 0.139E+00 0.334E+01   -.749E-02 0.339E-01 -.496E-01
   -.151E+02 0.202E+01 -.495E+03   0.150E+02 -.222E+01 0.500E+03   0.148E-01 0.165E+00 -.480E+01   0.147E+00 0.299E-01 -.860E-02
   0.165E+02 -.698E+01 0.629E+03   -.173E+02 0.739E+01 -.632E+03   0.802E+00 -.434E+00 0.343E+01   -.222E-01 0.234E-01 0.150E-01
   -.197E+02 -.386E+01 -.625E+03   0.208E+02 0.439E+01 0.628E+03   -.105E+01 -.540E+00 -.338E+01   -.282E-01 0.129E-01 0.186E-01
   0.683E+01 0.203E+00 0.567E+03   -.872E+01 -.106E+00 -.570E+03   0.201E+01 -.872E-01 0.308E+01   -.122E+00 -.109E-01 0.918E-01
   -.834E+01 -.150E+01 -.564E+03   0.106E+02 0.157E+01 0.567E+03   -.219E+01 -.510E-01 -.299E+01   -.925E-01 -.178E-01 0.436E-01
   0.782E+01 0.484E+01 0.488E+03   -.740E+01 -.496E+01 -.493E+03   -.508E+00 0.193E+00 0.506E+01   0.893E-01 -.742E-01 0.583E-01
   0.223E+02 0.970E+01 -.607E+03   -.229E+02 -.994E+01 0.611E+03   0.620E+00 0.324E+00 -.389E+01   -.449E-01 -.836E-01 -.706E-01
   -.232E+02 -.909E+01 0.604E+03   0.239E+02 0.952E+01 -.608E+03   -.682E+00 -.394E+00 0.377E+01   -.301E-01 -.379E-01 -.428E-01
   -.491E+01 -.349E+01 -.490E+03   0.427E+01 0.363E+01 0.495E+03   0.576E+00 -.877E-01 -.498E+01   0.599E-01 -.452E-01 0.354E-01
   -.218E+02 0.651E+01 0.591E+03   0.228E+02 -.666E+01 -.594E+03   -.950E+00 0.147E+00 0.340E+01   -.346E-01 0.337E-02 -.794E-01
   -.374E+01 0.199E+01 -.484E+03   0.281E+01 -.187E+01 0.488E+03   0.844E+00 -.144E+00 -.475E+01   0.783E-01 0.149E-01 0.603E-01
   0.142E+02 0.693E+01 0.627E+03   -.151E+02 -.748E+01 -.630E+03   0.954E+00 0.564E+00 0.339E+01   -.407E-01 -.128E-01 0.518E-02
   -.205E+02 0.442E+01 -.604E+03   0.220E+02 -.503E+01 0.606E+03   -.142E+01 0.599E+00 -.294E+01   -.518E-01 0.538E-02 0.584E-01
   0.203E+02 0.148E+00 0.507E+03   -.206E+02 -.104E+00 -.512E+03   0.260E+00 -.322E-01 0.503E+01   0.654E-01 -.101E-01 -.182E-01
   0.252E+02 0.454E+00 -.627E+03   -.259E+02 -.565E+00 0.631E+03   0.774E+00 0.114E+00 -.374E+01   -.371E-02 -.162E-02 -.766E-03
   0.754E+00 0.502E-02 -.466E+00   -.142E-13 0.271E-13 0.455E-12   -.658E+00 -.127E-01 0.333E+00   -.880E-01 0.348E-02 0.148E+00

 POSITION                                       TOTAL-FORCE (eV/Angst)
      0.32191      3.20274      0.08408         0.014101     -0.001069      0.029596
      5.28541      6.39637     -0.04922        -0.005317     -0.001240     -0.004994
      5.22383      3.20241     -0.08180        -0.012557      0.000031     -0.030875
      2.78158      1.40368     -0.00224         0.000881      0.000176      0.004743
     -5.60344      3.21867     -0.00770         0.003173     -0.003823      0.002367
      2.74476      4.97827     -0.00346         0.003044      0.000033      0.003130
      0.29197     -0.02764      0.04655         0.001228      0.006540      0.005536
     -3.08028      4.77119     -0.04345        -0.001121     -0.004093     -0.004900
      0.30160      6.43323      0.05450         0.000303     -0.000289      0.004218
     -0.91756      1.62980     28.73307         0.001968      0.003854      0.008914
      0.94930      1.60800      1.65502         0.004186     -0.001514      0.005740
     -3.70757      3.15857     28.35197        -0.001297      0.000972     -0.000676
     -1.83319      3.17361      1.31081        -0.003475      0.000141     -0.003790
     -6.46289      4.77691     28.30336        -0.002745     -0.000707      0.005447
     -4.66371      4.76609      1.68357         0.002722     -0.001192     -0.004863
      1.88118      3.19550     28.49045        -0.005719     -0.001026      0.005867
      3.66594      3.19799      1.49995         0.006897      0.000468     -0.007795
     -0.90922      4.76932     28.71828         0.001892     -0.002351      0.012111
      0.94956      4.79510      1.66853         0.004804      0.003749      0.001607
     -3.73842      6.40714     28.34346        -0.004713     -0.001946     -0.002261
     -1.87433      6.43543      1.28912        -0.004321      0.004309     -0.011852
      4.62387      4.82132     28.38630        -0.002363     -0.000263     -0.004291
      6.45395      4.77871      1.26885        -0.002500     -0.002334     -0.015223
      1.87255      6.42304     28.30982        -0.004264     -0.000952      0.005164
      3.73476      6.41411      1.61510         0.000983     -0.000651     -0.004975
     -0.96558      7.99467     28.65394         0.001477      0.001705      0.006258
      0.94701      7.99643      1.72114         0.002735      0.001470     -0.004203
    total drift:                                0.007977     -0.004223      0.015752

  FREE ENERGIE OF THE ION-ELECTRON SYSTEM (eV)
  free  energy   TOTEN  =      -192.46512250 eV

  energy  without entropy=     -192.33954553  energy(sigma->0) =     -192.40233402

 d Force = 0.1319781E-03[ 0.915E-04, 0.172E-03]  d Energy = 0.2122687E-03-0.803E-04
 d Force =-0.7788426E+00[-0.779E+00,-0.779E+00]  d Ewald  = 0.8005568E+01-0.878E+01

 Quasi-Newton relaxation of ions (Broydens 2nd method)
  g(Force)  = 0.178E-03   g(Stress)= 0.149E-03

 retain information from N=  3 steps
 eigenvalues of (default step * inverse Hessian matrix)
  average eigenvalue of G=   2.6453
 eigenvalue spectrum of G is  1.5137  1.5137  4.9083

 reached required accuracy - stopping structural energy minimisation